; benchmark generated from python API
(set-info :status unknown)
(declare-fun cell_1_3 () Int)
(declare-fun cell_1_6 () Int)
(declare-fun cell_2_6 () Int)
(declare-fun cell_2_8 () Int)
(declare-fun cell_3_3 () Int)
(declare-fun cell_3_9 () Int)
(declare-fun cell_4_4 () Int)
(declare-fun cell_4_5 () Int)
(declare-fun cell_5_1 () Int)
(declare-fun cell_5_8 () Int)
(declare-fun cell_6_1 () Int)
(declare-fun cell_6_9 () Int)
(declare-fun cell_7_4 () Int)
(declare-fun cell_8_2 () Int)
(declare-fun cell_9_7 () Int)
(declare-fun cell_1_1 () Int)
(declare-fun cell_2_1 () Int)
(declare-fun cell_3_1 () Int)
(declare-fun cell_4_1 () Int)
(declare-fun cell_7_1 () Int)
(declare-fun cell_8_1 () Int)
(declare-fun cell_9_1 () Int)
(declare-fun cell_1_2 () Int)
(declare-fun cell_2_2 () Int)
(declare-fun cell_3_2 () Int)
(declare-fun cell_4_2 () Int)
(declare-fun cell_5_2 () Int)
(declare-fun cell_6_2 () Int)
(declare-fun cell_7_2 () Int)
(declare-fun cell_9_2 () Int)
(declare-fun cell_2_3 () Int)
(declare-fun cell_4_3 () Int)
(declare-fun cell_5_3 () Int)
(declare-fun cell_6_3 () Int)
(declare-fun cell_7_3 () Int)
(declare-fun cell_8_3 () Int)
(declare-fun cell_9_3 () Int)
(declare-fun cell_1_4 () Int)
(declare-fun cell_2_4 () Int)
(declare-fun cell_3_4 () Int)
(declare-fun cell_5_4 () Int)
(declare-fun cell_6_4 () Int)
(declare-fun cell_8_4 () Int)
(declare-fun cell_9_4 () Int)
(declare-fun cell_1_5 () Int)
(declare-fun cell_2_5 () Int)
(declare-fun cell_3_5 () Int)
(declare-fun cell_5_5 () Int)
(declare-fun cell_6_5 () Int)
(declare-fun cell_7_5 () Int)
(declare-fun cell_8_5 () Int)
(declare-fun cell_9_5 () Int)
(declare-fun cell_3_6 () Int)
(declare-fun cell_4_6 () Int)
(declare-fun cell_5_6 () Int)
(declare-fun cell_6_6 () Int)
(declare-fun cell_7_6 () Int)
(declare-fun cell_8_6 () Int)
(declare-fun cell_9_6 () Int)
(declare-fun cell_1_7 () Int)
(declare-fun cell_2_7 () Int)
(declare-fun cell_3_7 () Int)
(declare-fun cell_4_7 () Int)
(declare-fun cell_5_7 () Int)
(declare-fun cell_6_7 () Int)
(declare-fun cell_7_7 () Int)
(declare-fun cell_8_7 () Int)
(declare-fun cell_1_8 () Int)
(declare-fun cell_3_8 () Int)
(declare-fun cell_4_8 () Int)
(declare-fun cell_6_8 () Int)
(declare-fun cell_7_8 () Int)
(declare-fun cell_8_8 () Int)
(declare-fun cell_9_8 () Int)
(declare-fun cell_1_9 () Int)
(declare-fun cell_2_9 () Int)
(declare-fun cell_4_9 () Int)
(declare-fun cell_5_9 () Int)
(declare-fun cell_7_9 () Int)
(declare-fun cell_8_9 () Int)
(declare-fun cell_9_9 () Int)
(assert
 (= cell_1_3 1))
(assert
 (= cell_1_6 2))
(assert
 (= cell_2_6 1))
(assert
 (= cell_2_8 2))
(assert
 (= cell_3_3 2))
(assert
 (= cell_3_9 1))
(assert
 (= cell_4_4 2))
(assert
 (= cell_4_5 1))
(assert
 (= cell_5_1 2))
(assert
 (= cell_5_8 1))
(assert
 (= cell_6_1 1))
(assert
 (= cell_6_9 2))
(assert
 (= cell_7_4 1))
(assert
 (= cell_8_2 1))
(assert
 (= cell_9_7 1))
(assert
 (let (($x2657 (= cell_1_1 9)))
 (let (($x1776 (= cell_1_1 8)))
 (let (($x2735 (= cell_1_1 7)))
 (let (($x181 (= cell_1_1 6)))
 (let (($x216 (= cell_1_1 5)))
 (let (($x1424 (= cell_1_1 4)))
 (let (($x2348 (= cell_1_1 3)))
 (let (($x1143 (= cell_1_1 2)))
 (let (($x1166 (= cell_1_1 1)))
 (or $x1166 $x1143 $x2348 $x1424 $x216 $x181 $x2735 $x1776 $x2657)))))))))))
(assert
 (let (($x2416 (= cell_2_1 9)))
 (let (($x2257 (= cell_2_1 8)))
 (let (($x1856 (= cell_2_1 7)))
 (let (($x2293 (= cell_2_1 6)))
 (let (($x1063 (= cell_2_1 5)))
 (let (($x3432 (= cell_2_1 4)))
 (let (($x1187 (= cell_2_1 3)))
 (let (($x358 (= cell_2_1 2)))
 (let (($x2108 (= cell_2_1 1)))
 (or $x2108 $x358 $x1187 $x3432 $x1063 $x2293 $x1856 $x2257 $x2416)))))))))))
(assert
 (let (($x1302 (= cell_3_1 9)))
 (let (($x1296 (= cell_3_1 8)))
 (let (($x620 (= cell_3_1 7)))
 (let (($x2921 (= cell_3_1 6)))
 (let (($x2528 (= cell_3_1 5)))
 (let (($x954 (= cell_3_1 4)))
 (let (($x2674 (= cell_3_1 3)))
 (let (($x2009 (= cell_3_1 2)))
 (let (($x289 (= cell_3_1 1)))
 (or $x289 $x2009 $x2674 $x954 $x2528 $x2921 $x620 $x1296 $x1302)))))))))))
(assert
 (let (($x1732 (= cell_4_1 9)))
 (let (($x2497 (= cell_4_1 8)))
 (let (($x2468 (= cell_4_1 7)))
 (let (($x298 (= cell_4_1 6)))
 (let (($x3731 (= cell_4_1 5)))
 (let (($x2414 (= cell_4_1 4)))
 (let (($x1709 (= cell_4_1 3)))
 (let (($x2757 (= cell_4_1 2)))
 (let (($x678 (= cell_4_1 1)))
 (or $x678 $x2757 $x1709 $x2414 $x3731 $x298 $x2468 $x2497 $x1732)))))))))))
(assert
 (let (($x123 (= cell_5_1 2)))
 (or (= cell_5_1 1) $x123 (= cell_5_1 3) (= cell_5_1 4) (= cell_5_1 5) (= cell_5_1 6) (= cell_5_1 7) (= cell_5_1 8) (= cell_5_1 9))))
(assert
 (let (($x85 (= cell_6_1 1)))
 (or $x85 (= cell_6_1 2) (= cell_6_1 3) (= cell_6_1 4) (= cell_6_1 5) (= cell_6_1 6) (= cell_6_1 7) (= cell_6_1 8) (= cell_6_1 9))))
(assert
 (let (($x973 (= cell_7_1 9)))
 (let (($x934 (= cell_7_1 8)))
 (let (($x1436 (= cell_7_1 7)))
 (let (($x913 (= cell_7_1 6)))
 (let (($x1773 (= cell_7_1 5)))
 (let (($x121 (= cell_7_1 4)))
 (let (($x511 (= cell_7_1 3)))
 (let (($x352 (= cell_7_1 2)))
 (let (($x2815 (= cell_7_1 1)))
 (or $x2815 $x352 $x511 $x121 $x1773 $x913 $x1436 $x934 $x973)))))))))))
(assert
 (let (($x1704 (= cell_8_1 9)))
 (let (($x415 (= cell_8_1 8)))
 (let (($x1816 (= cell_8_1 7)))
 (let (($x1494 (= cell_8_1 6)))
 (let (($x363 (= cell_8_1 5)))
 (let (($x1795 (= cell_8_1 4)))
 (let (($x3384 (= cell_8_1 3)))
 (let (($x2392 (= cell_8_1 2)))
 (let (($x1617 (= cell_8_1 1)))
 (or $x1617 $x2392 $x3384 $x1795 $x363 $x1494 $x1816 $x415 $x1704)))))))))))
(assert
 (let (($x3012 (= cell_9_1 9)))
 (let (($x851 (= cell_9_1 8)))
 (let (($x702 (= cell_9_1 7)))
 (let (($x1549 (= cell_9_1 6)))
 (let (($x1407 (= cell_9_1 5)))
 (let (($x3651 (= cell_9_1 4)))
 (let (($x1300 (= cell_9_1 3)))
 (let (($x579 (= cell_9_1 2)))
 (let (($x2493 (= cell_9_1 1)))
 (or $x2493 $x579 $x1300 $x3651 $x1407 $x1549 $x702 $x851 $x3012)))))))))))
(assert
 (let (($x30 (= cell_1_2 9)))
 (let (($x1330 (= cell_1_2 8)))
 (let (($x1552 (= cell_1_2 7)))
 (let (($x2182 (= cell_1_2 6)))
 (let (($x655 (= cell_1_2 5)))
 (let (($x2010 (= cell_1_2 4)))
 (let (($x2861 (= cell_1_2 3)))
 (let (($x286 (= cell_1_2 2)))
 (let (($x2341 (= cell_1_2 1)))
 (or $x2341 $x286 $x2861 $x2010 $x655 $x2182 $x1552 $x1330 $x30)))))))))))
(assert
 (let (($x2658 (= cell_2_2 9)))
 (let (($x3730 (= cell_2_2 8)))
 (let (($x1606 (= cell_2_2 7)))
 (let (($x171 (= cell_2_2 6)))
 (let (($x2043 (= cell_2_2 5)))
 (let (($x442 (= cell_2_2 4)))
 (let (($x2140 (= cell_2_2 3)))
 (let (($x1254 (= cell_2_2 2)))
 (let (($x2606 (= cell_2_2 1)))
 (or $x2606 $x1254 $x2140 $x442 $x2043 $x171 $x1606 $x3730 $x2658)))))))))))
(assert
 (let (($x1658 (= cell_3_2 9)))
 (let (($x3215 (= cell_3_2 8)))
 (let (($x2237 (= cell_3_2 7)))
 (let (($x2151 (= cell_3_2 6)))
 (let (($x279 (= cell_3_2 5)))
 (let (($x776 (= cell_3_2 4)))
 (let (($x1718 (= cell_3_2 3)))
 (let (($x3424 (= cell_3_2 2)))
 (let (($x7853 (= cell_3_2 1)))
 (or $x7853 $x3424 $x1718 $x776 $x279 $x2151 $x2237 $x3215 $x1658)))))))))))
(assert
 (let (($x2230 (= cell_4_2 9)))
 (let (($x2445 (= cell_4_2 8)))
 (let (($x983 (= cell_4_2 7)))
 (let (($x1366 (= cell_4_2 6)))
 (let (($x780 (= cell_4_2 5)))
 (let (($x2308 (= cell_4_2 4)))
 (let (($x2656 (= cell_4_2 3)))
 (let (($x1602 (= cell_4_2 2)))
 (let (($x3575 (= cell_4_2 1)))
 (or $x3575 $x1602 $x2656 $x2308 $x780 $x1366 $x983 $x2445 $x2230)))))))))))
(assert
 (let (($x2271 (= cell_5_2 9)))
 (let (($x210 (= cell_5_2 8)))
 (let (($x2178 (= cell_5_2 7)))
 (let (($x2707 (= cell_5_2 6)))
 (let (($x187 (= cell_5_2 5)))
 (let (($x360 (= cell_5_2 4)))
 (let (($x3228 (= cell_5_2 3)))
 (let (($x1469 (= cell_5_2 2)))
 (let (($x2299 (= cell_5_2 1)))
 (or $x2299 $x1469 $x3228 $x360 $x187 $x2707 $x2178 $x210 $x2271)))))))))))
(assert
 (let (($x2619 (= cell_6_2 9)))
 (let (($x38 (= cell_6_2 8)))
 (let (($x2792 (= cell_6_2 7)))
 (let (($x2512 (= cell_6_2 6)))
 (let (($x1543 (= cell_6_2 5)))
 (let (($x3445 (= cell_6_2 4)))
 (let (($x3570 (= cell_6_2 3)))
 (let (($x2176 (= cell_6_2 2)))
 (let (($x1194 (= cell_6_2 1)))
 (or $x1194 $x2176 $x3570 $x3445 $x1543 $x2512 $x2792 $x38 $x2619)))))))))))
(assert
 (let (($x1183 (= cell_7_2 9)))
 (let (($x561 (= cell_7_2 8)))
 (let (($x3589 (= cell_7_2 7)))
 (let (($x285 (= cell_7_2 6)))
 (let (($x2103 (= cell_7_2 5)))
 (let (($x3146 (= cell_7_2 4)))
 (let (($x1972 (= cell_7_2 3)))
 (let (($x2768 (= cell_7_2 2)))
 (let (($x1973 (= cell_7_2 1)))
 (or $x1973 $x2768 $x1972 $x3146 $x2103 $x285 $x3589 $x561 $x1183)))))))))))
(assert
 (let (($x2640 (= cell_8_2 1)))
 (or $x2640 (= cell_8_2 2) (= cell_8_2 3) (= cell_8_2 4) (= cell_8_2 5) (= cell_8_2 6) (= cell_8_2 7) (= cell_8_2 8) (= cell_8_2 9))))
(assert
 (let (($x3796 (= cell_9_2 9)))
 (let (($x1346 (= cell_9_2 8)))
 (let (($x1832 (= cell_9_2 7)))
 (let (($x1108 (= cell_9_2 6)))
 (let (($x2929 (= cell_9_2 5)))
 (let (($x2626 (= cell_9_2 4)))
 (let (($x1385 (= cell_9_2 3)))
 (let (($x1061 (= cell_9_2 2)))
 (let (($x4221 (= cell_9_2 1)))
 (or $x4221 $x1061 $x1385 $x2626 $x2929 $x1108 $x1832 $x1346 $x3796)))))))))))
(assert
 (let (($x2671 (= cell_1_3 1)))
 (or $x2671 (= cell_1_3 2) (= cell_1_3 3) (= cell_1_3 4) (= cell_1_3 5) (= cell_1_3 6) (= cell_1_3 7) (= cell_1_3 8) (= cell_1_3 9))))
(assert
 (let (($x1488 (= cell_2_3 9)))
 (let (($x81 (= cell_2_3 8)))
 (let (($x2893 (= cell_2_3 7)))
 (let (($x848 (= cell_2_3 6)))
 (let (($x158 (= cell_2_3 5)))
 (let (($x1269 (= cell_2_3 4)))
 (let (($x1508 (= cell_2_3 3)))
 (let (($x971 (= cell_2_3 2)))
 (let (($x1990 (= cell_2_3 1)))
 (or $x1990 $x971 $x1508 $x1269 $x158 $x848 $x2893 $x81 $x1488)))))))))))
(assert
 (let (($x1955 (= cell_3_3 2)))
 (or (= cell_3_3 1) $x1955 (= cell_3_3 3) (= cell_3_3 4) (= cell_3_3 5) (= cell_3_3 6) (= cell_3_3 7) (= cell_3_3 8) (= cell_3_3 9))))
(assert
 (let (($x22 (= cell_4_3 9)))
 (let (($x2297 (= cell_4_3 8)))
 (let (($x403 (= cell_4_3 7)))
 (let (($x3427 (= cell_4_3 6)))
 (let (($x1167 (= cell_4_3 5)))
 (let (($x2197 (= cell_4_3 4)))
 (let (($x260 (= cell_4_3 3)))
 (let (($x21 (= cell_4_3 2)))
 (let (($x668 (= cell_4_3 1)))
 (or $x668 $x21 $x260 $x2197 $x1167 $x3427 $x403 $x2297 $x22)))))))))))
(assert
 (let (($x2080 (= cell_5_3 9)))
 (let (($x1666 (= cell_5_3 8)))
 (let (($x400 (= cell_5_3 7)))
 (let (($x2339 (= cell_5_3 6)))
 (let (($x104 (= cell_5_3 5)))
 (let (($x458 (= cell_5_3 4)))
 (let (($x1783 (= cell_5_3 3)))
 (let (($x1341 (= cell_5_3 2)))
 (let (($x2589 (= cell_5_3 1)))
 (or $x2589 $x1341 $x1783 $x458 $x104 $x2339 $x400 $x1666 $x2080)))))))))))
(assert
 (let (($x990 (= cell_6_3 9)))
 (let (($x3830 (= cell_6_3 8)))
 (let (($x1199 (= cell_6_3 7)))
 (let (($x1680 (= cell_6_3 6)))
 (let (($x2028 (= cell_6_3 5)))
 (let (($x2828 (= cell_6_3 4)))
 (let (($x1430 (= cell_6_3 3)))
 (let (($x814 (= cell_6_3 2)))
 (let (($x3504 (= cell_6_3 1)))
 (or $x3504 $x814 $x1430 $x2828 $x2028 $x1680 $x1199 $x3830 $x990)))))))))))
(assert
 (let (($x756 (= cell_7_3 9)))
 (let (($x775 (= cell_7_3 8)))
 (let (($x1343 (= cell_7_3 7)))
 (let (($x920 (= cell_7_3 6)))
 (let (($x2701 (= cell_7_3 5)))
 (let (($x282 (= cell_7_3 4)))
 (let (($x2598 (= cell_7_3 3)))
 (let (($x1017 (= cell_7_3 2)))
 (let (($x2332 (= cell_7_3 1)))
 (or $x2332 $x1017 $x2598 $x282 $x2701 $x920 $x1343 $x775 $x756)))))))))))
(assert
 (let (($x145 (= cell_8_3 2)))
 (let (($x2670 (= cell_8_3 1)))
 (or $x2670 $x145 (= cell_8_3 3) (= cell_8_3 4) (= cell_8_3 5) (= cell_8_3 6) (= cell_8_3 7) (= cell_8_3 8) (= cell_8_3 9)))))
(assert
 (let (($x1534 (= cell_9_3 9)))
 (let (($x736 (= cell_9_3 8)))
 (let (($x1109 (= cell_9_3 7)))
 (let (($x1395 (= cell_9_3 6)))
 (let (($x3287 (= cell_9_3 5)))
 (let (($x774 (= cell_9_3 4)))
 (let (($x1502 (= cell_9_3 3)))
 (let (($x818 (= cell_9_3 2)))
 (let (($x830 (= cell_9_3 1)))
 (or $x830 $x818 $x1502 $x774 $x3287 $x1395 $x1109 $x736 $x1534)))))))))))
(assert
 (let (($x18 (= cell_1_4 9)))
 (let (($x1409 (= cell_1_4 8)))
 (let (($x3231 (= cell_1_4 7)))
 (let (($x1654 (= cell_1_4 6)))
 (let (($x3475 (= cell_1_4 5)))
 (let (($x2020 (= cell_1_4 4)))
 (let (($x3488 (= cell_1_4 3)))
 (let (($x601 (= cell_1_4 2)))
 (let (($x1563 (= cell_1_4 1)))
 (or $x1563 $x601 $x3488 $x2020 $x3475 $x1654 $x3231 $x1409 $x18)))))))))))
(assert
 (let (($x2174 (= cell_2_4 9)))
 (let (($x1103 (= cell_2_4 8)))
 (let (($x294 (= cell_2_4 7)))
 (let (($x760 (= cell_2_4 6)))
 (let (($x1351 (= cell_2_4 5)))
 (let (($x2588 (= cell_2_4 4)))
 (let (($x1428 (= cell_2_4 3)))
 (let (($x3836 (= cell_2_4 2)))
 (let (($x2184 (= cell_2_4 1)))
 (or $x2184 $x3836 $x1428 $x2588 $x1351 $x760 $x294 $x1103 $x2174)))))))))))
(assert
 (let (($x1283 (= cell_3_4 9)))
 (let (($x75 (= cell_3_4 8)))
 (let (($x745 (= cell_3_4 7)))
 (let (($x2356 (= cell_3_4 6)))
 (let (($x367 (= cell_3_4 5)))
 (let (($x2946 (= cell_3_4 4)))
 (let (($x238 (= cell_3_4 3)))
 (let (($x1648 (= cell_3_4 2)))
 (let (($x1626 (= cell_3_4 1)))
 (or $x1626 $x1648 $x238 $x2946 $x367 $x2356 $x745 $x75 $x1283)))))))))))
(assert
 (let (($x1537 (= cell_4_4 2)))
 (or (= cell_4_4 1) $x1537 (= cell_4_4 3) (= cell_4_4 4) (= cell_4_4 5) (= cell_4_4 6) (= cell_4_4 7) (= cell_4_4 8) (= cell_4_4 9))))
(assert
 (let (($x1868 (= cell_5_4 9)))
 (let (($x2860 (= cell_5_4 8)))
 (let (($x2241 (= cell_5_4 7)))
 (let (($x2396 (= cell_5_4 6)))
 (let (($x912 (= cell_5_4 5)))
 (let (($x2210 (= cell_5_4 4)))
 (let (($x1236 (= cell_5_4 3)))
 (let (($x1031 (= cell_5_4 2)))
 (let (($x948 (= cell_5_4 1)))
 (or $x948 $x1031 $x1236 $x2210 $x912 $x2396 $x2241 $x2860 $x1868)))))))))))
(assert
 (let (($x908 (= cell_6_4 9)))
 (let (($x2943 (= cell_6_4 8)))
 (let (($x2849 (= cell_6_4 7)))
 (let (($x1587 (= cell_6_4 6)))
 (let (($x882 (= cell_6_4 5)))
 (let (($x2059 (= cell_6_4 4)))
 (let (($x3534 (= cell_6_4 3)))
 (let (($x1293 (= cell_6_4 2)))
 (let (($x2910 (= cell_6_4 1)))
 (or $x2910 $x1293 $x3534 $x2059 $x882 $x1587 $x2849 $x2943 $x908)))))))))))
(assert
 (let (($x3340 (= cell_7_4 1)))
 (or $x3340 (= cell_7_4 2) (= cell_7_4 3) (= cell_7_4 4) (= cell_7_4 5) (= cell_7_4 6) (= cell_7_4 7) (= cell_7_4 8) (= cell_7_4 9))))
(assert
 (let (($x3501 (= cell_8_4 2)))
 (let (($x1435 (= cell_8_4 1)))
 (or $x1435 $x3501 (= cell_8_4 3) (= cell_8_4 4) (= cell_8_4 5) (= cell_8_4 6) (= cell_8_4 7) (= cell_8_4 8) (= cell_8_4 9)))))
(assert
 (let (($x1259 (= cell_9_4 9)))
 (let (($x1985 (= cell_9_4 8)))
 (let (($x2826 (= cell_9_4 7)))
 (let (($x1267 (= cell_9_4 6)))
 (let (($x258 (= cell_9_4 5)))
 (let (($x820 (= cell_9_4 4)))
 (let (($x41 (= cell_9_4 3)))
 (let (($x2748 (= cell_9_4 2)))
 (let (($x1771 (= cell_9_4 1)))
 (or $x1771 $x2748 $x41 $x820 $x258 $x1267 $x2826 $x1985 $x1259)))))))))))
(assert
 (let (($x3496 (= cell_1_5 9)))
 (let (($x1661 (= cell_1_5 8)))
 (let (($x2985 (= cell_1_5 7)))
 (let (($x733 (= cell_1_5 6)))
 (let (($x947 (= cell_1_5 5)))
 (let (($x2034 (= cell_1_5 4)))
 (let (($x548 (= cell_1_5 3)))
 (let (($x2345 (= cell_1_5 2)))
 (let (($x3002 (= cell_1_5 1)))
 (or $x3002 $x2345 $x548 $x2034 $x947 $x733 $x2985 $x1661 $x3496)))))))))))
(assert
 (let (($x300 (= cell_2_5 9)))
 (let (($x1049 (= cell_2_5 8)))
 (let (($x2013 (= cell_2_5 7)))
 (let (($x288 (= cell_2_5 6)))
 (let (($x2740 (= cell_2_5 5)))
 (let (($x950 (= cell_2_5 4)))
 (let (($x1475 (= cell_2_5 3)))
 (let (($x3757 (= cell_2_5 2)))
 (let (($x2491 (= cell_2_5 1)))
 (or $x2491 $x3757 $x1475 $x950 $x2740 $x288 $x2013 $x1049 $x300)))))))))))
(assert
 (let (($x2292 (= cell_3_5 9)))
 (let (($x531 (= cell_3_5 8)))
 (let (($x953 (= cell_3_5 7)))
 (let (($x426 (= cell_3_5 6)))
 (let (($x2509 (= cell_3_5 5)))
 (let (($x3701 (= cell_3_5 4)))
 (let (($x3359 (= cell_3_5 3)))
 (let (($x14 (= cell_3_5 2)))
 (let (($x2906 (= cell_3_5 1)))
 (or $x2906 $x14 $x3359 $x3701 $x2509 $x426 $x953 $x531 $x2292)))))))))))
(assert
 (let (($x345 (= cell_4_5 1)))
 (or $x345 (= cell_4_5 2) (= cell_4_5 3) (= cell_4_5 4) (= cell_4_5 5) (= cell_4_5 6) (= cell_4_5 7) (= cell_4_5 8) (= cell_4_5 9))))
(assert
 (let (($x1036 (= cell_5_5 9)))
 (let (($x2665 (= cell_5_5 8)))
 (let (($x885 (= cell_5_5 7)))
 (let (($x936 (= cell_5_5 6)))
 (let (($x1691 (= cell_5_5 5)))
 (let (($x3101 (= cell_5_5 4)))
 (let (($x2760 (= cell_5_5 3)))
 (let (($x2637 (= cell_5_5 2)))
 (let (($x2375 (= cell_5_5 1)))
 (or $x2375 $x2637 $x2760 $x3101 $x1691 $x936 $x885 $x2665 $x1036)))))))))))
(assert
 (let (($x1659 (= cell_6_5 9)))
 (let (($x417 (= cell_6_5 8)))
 (let (($x2371 (= cell_6_5 7)))
 (let (($x1685 (= cell_6_5 6)))
 (let (($x1949 (= cell_6_5 5)))
 (let (($x2251 (= cell_6_5 4)))
 (let (($x2974 (= cell_6_5 3)))
 (let (($x2561 (= cell_6_5 2)))
 (let (($x2511 (= cell_6_5 1)))
 (or $x2511 $x2561 $x2974 $x2251 $x1949 $x1685 $x2371 $x417 $x1659)))))))))))
(assert
 (let (($x3121 (= cell_7_5 1)))
 (or $x3121 (= cell_7_5 2) (= cell_7_5 3) (= cell_7_5 4) (= cell_7_5 5) (= cell_7_5 6) (= cell_7_5 7) (= cell_7_5 8) (= cell_7_5 9))))
(assert
 (let (($x3355 (= cell_8_5 1)))
 (or $x3355 (= cell_8_5 2) (= cell_8_5 3) (= cell_8_5 4) (= cell_8_5 5) (= cell_8_5 6) (= cell_8_5 7) (= cell_8_5 8) (= cell_8_5 9))))
(assert
 (let (($x674 (= cell_9_5 9)))
 (let (($x2213 (= cell_9_5 8)))
 (let (($x150 (= cell_9_5 7)))
 (let (($x901 (= cell_9_5 6)))
 (let (($x2668 (= cell_9_5 5)))
 (let (($x2249 (= cell_9_5 4)))
 (let (($x1524 (= cell_9_5 3)))
 (let (($x958 (= cell_9_5 2)))
 (let (($x3628 (= cell_9_5 1)))
 (or $x3628 $x958 $x1524 $x2249 $x2668 $x901 $x150 $x2213 $x674)))))))))))
(assert
 (let (($x4061 (= cell_1_6 2)))
 (or (= cell_1_6 1) $x4061 (= cell_1_6 3) (= cell_1_6 4) (= cell_1_6 5) (= cell_1_6 6) (= cell_1_6 7) (= cell_1_6 8) (= cell_1_6 9))))
(assert
 (let (($x3804 (= cell_2_6 1)))
 (or $x3804 (= cell_2_6 2) (= cell_2_6 3) (= cell_2_6 4) (= cell_2_6 5) (= cell_2_6 6) (= cell_2_6 7) (= cell_2_6 8) (= cell_2_6 9))))
(assert
 (let (($x528 (= cell_3_6 9)))
 (let (($x2316 (= cell_3_6 8)))
 (let (($x1940 (= cell_3_6 7)))
 (let (($x529 (= cell_3_6 6)))
 (let (($x320 (= cell_3_6 5)))
 (let (($x297 (= cell_3_6 4)))
 (let (($x552 (= cell_3_6 3)))
 (let (($x1490 (= cell_3_6 2)))
 (let (($x1624 (= cell_3_6 1)))
 (or $x1624 $x1490 $x552 $x297 $x320 $x529 $x1940 $x2316 $x528)))))))))))
(assert
 (let (($x2489 (= cell_4_6 2)))
 (let (($x1463 (= cell_4_6 1)))
 (or $x1463 $x2489 (= cell_4_6 3) (= cell_4_6 4) (= cell_4_6 5) (= cell_4_6 6) (= cell_4_6 7) (= cell_4_6 8) (= cell_4_6 9)))))
(assert
 (let (($x1303 (= cell_5_6 9)))
 (let (($x146 (= cell_5_6 8)))
 (let (($x1094 (= cell_5_6 7)))
 (let (($x2454 (= cell_5_6 6)))
 (let (($x182 (= cell_5_6 5)))
 (let (($x2605 (= cell_5_6 4)))
 (let (($x1876 (= cell_5_6 3)))
 (let (($x354 (= cell_5_6 2)))
 (let (($x2054 (= cell_5_6 1)))
 (or $x2054 $x354 $x1876 $x2605 $x182 $x2454 $x1094 $x146 $x1303)))))))))))
(assert
 (let (($x1904 (= cell_6_6 9)))
 (let (($x3197 (= cell_6_6 8)))
 (let (($x1669 (= cell_6_6 7)))
 (let (($x2796 (= cell_6_6 6)))
 (let (($x1839 (= cell_6_6 5)))
 (let (($x1449 (= cell_6_6 4)))
 (let (($x1946 (= cell_6_6 3)))
 (let (($x1388 (= cell_6_6 2)))
 (let (($x1299 (= cell_6_6 1)))
 (or $x1299 $x1388 $x1946 $x1449 $x1839 $x2796 $x1669 $x3197 $x1904)))))))))))
(assert
 (let (($x2282 (= cell_7_6 2)))
 (let (($x3492 (= cell_7_6 1)))
 (or $x3492 $x2282 (= cell_7_6 3) (= cell_7_6 4) (= cell_7_6 5) (= cell_7_6 6) (= cell_7_6 7) (= cell_7_6 8) (= cell_7_6 9)))))
(assert
 (let (($x2517 (= cell_8_6 2)))
 (let (($x2112 (= cell_8_6 1)))
 (or $x2112 $x2517 (= cell_8_6 3) (= cell_8_6 4) (= cell_8_6 5) (= cell_8_6 6) (= cell_8_6 7) (= cell_8_6 8) (= cell_8_6 9)))))
(assert
 (let (($x1515 (= cell_9_6 9)))
 (let (($x2135 (= cell_9_6 8)))
 (let (($x1014 (= cell_9_6 7)))
 (let (($x1752 (= cell_9_6 6)))
 (let (($x1517 (= cell_9_6 5)))
 (let (($x3680 (= cell_9_6 4)))
 (let (($x3153 (= cell_9_6 3)))
 (let (($x2887 (= cell_9_6 2)))
 (let (($x2063 (= cell_9_6 1)))
 (or $x2063 $x2887 $x3153 $x3680 $x1517 $x1752 $x1014 $x2135 $x1515)))))))))))
(assert
 (let (($x3789 (= cell_1_7 9)))
 (let (($x1032 (= cell_1_7 8)))
 (let (($x1598 (= cell_1_7 7)))
 (let (($x1068 (= cell_1_7 6)))
 (let (($x751 (= cell_1_7 5)))
 (let (($x2596 (= cell_1_7 4)))
 (let (($x1605 (= cell_1_7 3)))
 (let (($x1609 (= cell_1_7 2)))
 (let (($x744 (= cell_1_7 1)))
 (or $x744 $x1609 $x1605 $x2596 $x751 $x1068 $x1598 $x1032 $x3789)))))))))))
(assert
 (let (($x1213 (= cell_2_7 9)))
 (let (($x2739 (= cell_2_7 8)))
 (let (($x778 (= cell_2_7 7)))
 (let (($x1048 (= cell_2_7 6)))
 (let (($x974 (= cell_2_7 5)))
 (let (($x1262 (= cell_2_7 4)))
 (let (($x810 (= cell_2_7 3)))
 (let (($x1153 (= cell_2_7 2)))
 (let (($x2099 (= cell_2_7 1)))
 (or $x2099 $x1153 $x810 $x1262 $x974 $x1048 $x778 $x2739 $x1213)))))))))))
(assert
 (let (($x362 (= cell_3_7 9)))
 (let (($x1347 (= cell_3_7 8)))
 (let (($x699 (= cell_3_7 7)))
 (let (($x394 (= cell_3_7 6)))
 (let (($x2833 (= cell_3_7 5)))
 (let (($x2886 (= cell_3_7 4)))
 (let (($x3711 (= cell_3_7 3)))
 (let (($x2614 (= cell_3_7 2)))
 (let (($x357 (= cell_3_7 1)))
 (or $x357 $x2614 $x3711 $x2886 $x2833 $x394 $x699 $x1347 $x362)))))))))))
(assert
 (let (($x3076 (= cell_4_7 9)))
 (let (($x1655 (= cell_4_7 8)))
 (let (($x2337 (= cell_4_7 7)))
 (let (($x894 (= cell_4_7 6)))
 (let (($x2450 (= cell_4_7 5)))
 (let (($x829 (= cell_4_7 4)))
 (let (($x489 (= cell_4_7 3)))
 (let (($x1483 (= cell_4_7 2)))
 (let (($x1900 (= cell_4_7 1)))
 (or $x1900 $x1483 $x489 $x829 $x2450 $x894 $x2337 $x1655 $x3076)))))))))))
(assert
 (let (($x1765 (= cell_5_7 9)))
 (let (($x1313 (= cell_5_7 8)))
 (let (($x267 (= cell_5_7 7)))
 (let (($x2857 (= cell_5_7 6)))
 (let (($x698 (= cell_5_7 5)))
 (let (($x2902 (= cell_5_7 4)))
 (let (($x1760 (= cell_5_7 3)))
 (let (($x269 (= cell_5_7 2)))
 (let (($x466 (= cell_5_7 1)))
 (or $x466 $x269 $x1760 $x2902 $x698 $x2857 $x267 $x1313 $x1765)))))))))))
(assert
 (let (($x2470 (= cell_6_7 9)))
 (let (($x522 (= cell_6_7 8)))
 (let (($x2319 (= cell_6_7 7)))
 (let (($x1737 (= cell_6_7 6)))
 (let (($x422 (= cell_6_7 5)))
 (let (($x652 (= cell_6_7 4)))
 (let (($x1762 (= cell_6_7 3)))
 (let (($x359 (= cell_6_7 2)))
 (let (($x823 (= cell_6_7 1)))
 (or $x823 $x359 $x1762 $x652 $x422 $x1737 $x2319 $x522 $x2470)))))))))))
(assert
 (let (($x2007 (= cell_7_7 9)))
 (let (($x3761 (= cell_7_7 8)))
 (let (($x714 (= cell_7_7 7)))
 (let (($x2838 (= cell_7_7 6)))
 (let (($x2575 (= cell_7_7 5)))
 (let (($x590 (= cell_7_7 4)))
 (let (($x3227 (= cell_7_7 3)))
 (let (($x365 (= cell_7_7 2)))
 (let (($x2880 (= cell_7_7 1)))
 (or $x2880 $x365 $x3227 $x590 $x2575 $x2838 $x714 $x3761 $x2007)))))))))))
(assert
 (let (($x1825 (= cell_8_7 9)))
 (let (($x437 (= cell_8_7 8)))
 (let (($x845 (= cell_8_7 7)))
 (let (($x3661 (= cell_8_7 6)))
 (let (($x2704 (= cell_8_7 5)))
 (let (($x2056 (= cell_8_7 4)))
 (let (($x1066 (= cell_8_7 3)))
 (let (($x546 (= cell_8_7 2)))
 (let (($x1713 (= cell_8_7 1)))
 (or $x1713 $x546 $x1066 $x2056 $x2704 $x3661 $x845 $x437 $x1825)))))))))))
(assert
 (let (($x1399 (= cell_9_7 1)))
 (or $x1399 (= cell_9_7 2) (= cell_9_7 3) (= cell_9_7 4) (= cell_9_7 5) (= cell_9_7 6) (= cell_9_7 7) (= cell_9_7 8) (= cell_9_7 9))))
(assert
 (let (($x2097 (= cell_1_8 9)))
 (let (($x26 (= cell_1_8 8)))
 (let (($x3114 (= cell_1_8 7)))
 (let (($x2328 (= cell_1_8 6)))
 (let (($x1250 (= cell_1_8 5)))
 (let (($x2234 (= cell_1_8 4)))
 (let (($x2809 (= cell_1_8 3)))
 (let (($x2220 (= cell_1_8 2)))
 (let (($x221 (= cell_1_8 1)))
 (or $x221 $x2220 $x2809 $x2234 $x1250 $x2328 $x3114 $x26 $x2097)))))))))))
(assert
 (let (($x219 (= cell_2_8 2)))
 (or (= cell_2_8 1) $x219 (= cell_2_8 3) (= cell_2_8 4) (= cell_2_8 5) (= cell_2_8 6) (= cell_2_8 7) (= cell_2_8 8) (= cell_2_8 9))))
(assert
 (let (($x1441 (= cell_3_8 9)))
 (let (($x2629 (= cell_3_8 8)))
 (let (($x1225 (= cell_3_8 7)))
 (let (($x1088 (= cell_3_8 6)))
 (let (($x963 (= cell_3_8 5)))
 (let (($x869 (= cell_3_8 4)))
 (let (($x57 (= cell_3_8 3)))
 (let (($x451 (= cell_3_8 2)))
 (let (($x2571 (= cell_3_8 1)))
 (or $x2571 $x451 $x57 $x869 $x963 $x1088 $x1225 $x2629 $x1441)))))))))))
(assert
 (let (($x1588 (= cell_4_8 9)))
 (let (($x3493 (= cell_4_8 8)))
 (let (($x1815 (= cell_4_8 7)))
 (let (($x4067 (= cell_4_8 6)))
 (let (($x2351 (= cell_4_8 5)))
 (let (($x822 (= cell_4_8 4)))
 (let (($x1796 (= cell_4_8 3)))
 (let (($x2779 (= cell_4_8 2)))
 (let (($x902 (= cell_4_8 1)))
 (or $x902 $x2779 $x1796 $x822 $x2351 $x4067 $x1815 $x3493 $x1588)))))))))))
(assert
 (let (($x1767 (= cell_5_8 1)))
 (or $x1767 (= cell_5_8 2) (= cell_5_8 3) (= cell_5_8 4) (= cell_5_8 5) (= cell_5_8 6) (= cell_5_8 7) (= cell_5_8 8) (= cell_5_8 9))))
(assert
 (let (($x1203 (= cell_6_8 9)))
 (let (($x274 (= cell_6_8 8)))
 (let (($x144 (= cell_6_8 7)))
 (let (($x1361 (= cell_6_8 6)))
 (let (($x1663 (= cell_6_8 5)))
 (let (($x734 (= cell_6_8 4)))
 (let (($x1804 (= cell_6_8 3)))
 (let (($x1976 (= cell_6_8 2)))
 (let (($x799 (= cell_6_8 1)))
 (or $x799 $x1976 $x1804 $x734 $x1663 $x1361 $x144 $x274 $x1203)))))))))))
(assert
 (let (($x3368 (= cell_7_8 9)))
 (let (($x315 (= cell_7_8 8)))
 (let (($x1836 (= cell_7_8 7)))
 (let (($x3766 (= cell_7_8 6)))
 (let (($x1160 (= cell_7_8 5)))
 (let (($x2253 (= cell_7_8 4)))
 (let (($x2503 (= cell_7_8 3)))
 (let (($x2932 (= cell_7_8 2)))
 (let (($x3038 (= cell_7_8 1)))
 (or $x3038 $x2932 $x2503 $x2253 $x1160 $x3766 $x1836 $x315 $x3368)))))))))))
(assert
 (let (($x2389 (= cell_8_8 9)))
 (let (($x3406 (= cell_8_8 8)))
 (let (($x2535 (= cell_8_8 7)))
 (let (($x3041 (= cell_8_8 6)))
 (let (($x2683 (= cell_8_8 5)))
 (let (($x575 (= cell_8_8 4)))
 (let (($x909 (= cell_8_8 3)))
 (let (($x3619 (= cell_8_8 2)))
 (let (($x2240 (= cell_8_8 1)))
 (or $x2240 $x3619 $x909 $x575 $x2683 $x3041 $x2535 $x3406 $x2389)))))))))))
(assert
 (let (($x1991 (= cell_9_8 2)))
 (let (($x1289 (= cell_9_8 1)))
 (or $x1289 $x1991 (= cell_9_8 3) (= cell_9_8 4) (= cell_9_8 5) (= cell_9_8 6) (= cell_9_8 7) (= cell_9_8 8) (= cell_9_8 9)))))
(assert
 (let (($x2136 (= cell_1_9 9)))
 (let (($x1087 (= cell_1_9 8)))
 (let (($x2895 (= cell_1_9 7)))
 (let (($x3490 (= cell_1_9 6)))
 (let (($x1829 (= cell_1_9 5)))
 (let (($x1455 (= cell_1_9 4)))
 (let (($x1853 (= cell_1_9 3)))
 (let (($x2421 (= cell_1_9 2)))
 (let (($x2248 (= cell_1_9 1)))
 (or $x2248 $x2421 $x1853 $x1455 $x1829 $x3490 $x2895 $x1087 $x2136)))))))))))
(assert
 (let (($x462 (= cell_2_9 9)))
 (let (($x447 (= cell_2_9 8)))
 (let (($x184 (= cell_2_9 7)))
 (let (($x2264 (= cell_2_9 6)))
 (let (($x2545 (= cell_2_9 5)))
 (let (($x2840 (= cell_2_9 4)))
 (let (($x1884 (= cell_2_9 3)))
 (let (($x1222 (= cell_2_9 2)))
 (let (($x3200 (= cell_2_9 1)))
 (or $x3200 $x1222 $x1884 $x2840 $x2545 $x2264 $x184 $x447 $x462)))))))))))
(assert
 (let (($x1802 (= cell_3_9 1)))
 (or $x1802 (= cell_3_9 2) (= cell_3_9 3) (= cell_3_9 4) (= cell_3_9 5) (= cell_3_9 6) (= cell_3_9 7) (= cell_3_9 8) (= cell_3_9 9))))
(assert
 (let (($x1224 (= cell_4_9 9)))
 (let (($x1037 (= cell_4_9 8)))
 (let (($x3059 (= cell_4_9 7)))
 (let (($x3391 (= cell_4_9 6)))
 (let (($x599 (= cell_4_9 5)))
 (let (($x2273 (= cell_4_9 4)))
 (let (($x1828 (= cell_4_9 3)))
 (let (($x802 (= cell_4_9 2)))
 (let (($x3573 (= cell_4_9 1)))
 (or $x3573 $x802 $x1828 $x2273 $x599 $x3391 $x3059 $x1037 $x1224)))))))))))
(assert
 (let (($x1974 (= cell_5_9 9)))
 (let (($x2239 (= cell_5_9 8)))
 (let (($x925 (= cell_5_9 7)))
 (let (($x2898 (= cell_5_9 6)))
 (let (($x2400 (= cell_5_9 5)))
 (let (($x1676 (= cell_5_9 4)))
 (let (($x2053 (= cell_5_9 3)))
 (let (($x2094 (= cell_5_9 2)))
 (let (($x476 (= cell_5_9 1)))
 (or $x476 $x2094 $x2053 $x1676 $x2400 $x2898 $x925 $x2239 $x1974)))))))))))
(assert
 (let (($x1264 (= cell_6_9 2)))
 (or (= cell_6_9 1) $x1264 (= cell_6_9 3) (= cell_6_9 4) (= cell_6_9 5) (= cell_6_9 6) (= cell_6_9 7) (= cell_6_9 8) (= cell_6_9 9))))
(assert
 (let (($x223 (= cell_7_9 9)))
 (let (($x2370 (= cell_7_9 8)))
 (let (($x67 (= cell_7_9 7)))
 (let (($x228 (= cell_7_9 6)))
 (let (($x29 (= cell_7_9 5)))
 (let (($x2835 (= cell_7_9 4)))
 (let (($x843 (= cell_7_9 3)))
 (let (($x2011 (= cell_7_9 2)))
 (let (($x2149 (= cell_7_9 1)))
 (or $x2149 $x2011 $x843 $x2835 $x29 $x228 $x67 $x2370 $x223)))))))))))
(assert
 (let (($x899 (= cell_8_9 9)))
 (let (($x625 (= cell_8_9 8)))
 (let (($x2537 (= cell_8_9 7)))
 (let (($x2940 (= cell_8_9 6)))
 (let (($x3691 (= cell_8_9 5)))
 (let (($x2858 (= cell_8_9 4)))
 (let (($x433 (= cell_8_9 3)))
 (let (($x1110 (= cell_8_9 2)))
 (let (($x1486 (= cell_8_9 1)))
 (or $x1486 $x1110 $x433 $x2858 $x3691 $x2940 $x2537 $x625 $x899)))))))))))
(assert
 (let (($x2315 (= cell_9_9 2)))
 (let (($x2073 (= cell_9_9 1)))
 (or $x2073 $x2315 (= cell_9_9 3) (= cell_9_9 4) (= cell_9_9 5) (= cell_9_9 6) (= cell_9_9 7) (= cell_9_9 8) (= cell_9_9 9)))))
(assert
 (and (distinct cell_1_1 cell_1_2 cell_1_3 cell_1_4 cell_1_5 cell_1_6 cell_1_7 cell_1_8 cell_1_9) true))
(assert
 (and (distinct cell_2_1 cell_2_2 cell_2_3 cell_2_4 cell_2_5 cell_2_6 cell_2_7 cell_2_8 cell_2_9) true))
(assert
 (and (distinct cell_3_1 cell_3_2 cell_3_3 cell_3_4 cell_3_5 cell_3_6 cell_3_7 cell_3_8 cell_3_9) true))
(assert
 (and (distinct cell_4_1 cell_4_2 cell_4_3 cell_4_4 cell_4_5 cell_4_6 cell_4_7 cell_4_8 cell_4_9) true))
(assert
 (and (distinct cell_5_1 cell_5_2 cell_5_3 cell_5_4 cell_5_5 cell_5_6 cell_5_7 cell_5_8 cell_5_9) true))
(assert
 (and (distinct cell_6_1 cell_6_2 cell_6_3 cell_6_4 cell_6_5 cell_6_6 cell_6_7 cell_6_8 cell_6_9) true))
(assert
 (and (distinct cell_7_1 cell_7_2 cell_7_3 cell_7_4 cell_7_5 cell_7_6 cell_7_7 cell_7_8 cell_7_9) true))
(assert
 (and (distinct cell_8_1 cell_8_2 cell_8_3 cell_8_4 cell_8_5 cell_8_6 cell_8_7 cell_8_8 cell_8_9) true))
(assert
 (and (distinct cell_9_1 cell_9_2 cell_9_3 cell_9_4 cell_9_5 cell_9_6 cell_9_7 cell_9_8 cell_9_9) true))
(assert
 (and (distinct cell_1_1 cell_2_1 cell_3_1 cell_4_1 cell_5_1 cell_6_1 cell_7_1 cell_8_1 cell_9_1) true))
(assert
 (and (distinct cell_1_2 cell_2_2 cell_3_2 cell_4_2 cell_5_2 cell_6_2 cell_7_2 cell_8_2 cell_9_2) true))
(assert
 (and (distinct cell_1_3 cell_2_3 cell_3_3 cell_4_3 cell_5_3 cell_6_3 cell_7_3 cell_8_3 cell_9_3) true))
(assert
 (and (distinct cell_1_4 cell_2_4 cell_3_4 cell_4_4 cell_5_4 cell_6_4 cell_7_4 cell_8_4 cell_9_4) true))
(assert
 (and (distinct cell_1_5 cell_2_5 cell_3_5 cell_4_5 cell_5_5 cell_6_5 cell_7_5 cell_8_5 cell_9_5) true))
(assert
 (and (distinct cell_1_6 cell_2_6 cell_3_6 cell_4_6 cell_5_6 cell_6_6 cell_7_6 cell_8_6 cell_9_6) true))
(assert
 (and (distinct cell_1_7 cell_2_7 cell_3_7 cell_4_7 cell_5_7 cell_6_7 cell_7_7 cell_8_7 cell_9_7) true))
(assert
 (and (distinct cell_1_8 cell_2_8 cell_3_8 cell_4_8 cell_5_8 cell_6_8 cell_7_8 cell_8_8 cell_9_8) true))
(assert
 (and (distinct cell_1_9 cell_2_9 cell_3_9 cell_4_9 cell_5_9 cell_6_9 cell_7_9 cell_8_9 cell_9_9) true))
(assert
 (and (distinct cell_1_1 cell_1_2 cell_1_3 cell_2_1 cell_2_2 cell_2_3 cell_3_1 cell_3_2 cell_3_3) true))
(assert
 (and (distinct cell_1_4 cell_1_5 cell_1_6 cell_2_4 cell_2_5 cell_2_6 cell_3_4 cell_3_5 cell_3_6) true))
(assert
 (and (distinct cell_1_7 cell_1_8 cell_1_9 cell_2_7 cell_2_8 cell_2_9 cell_3_7 cell_3_8 cell_3_9) true))
(assert
 (and (distinct cell_4_1 cell_4_2 cell_4_3 cell_5_1 cell_5_2 cell_5_3 cell_6_1 cell_6_2 cell_6_3) true))
(assert
 (and (distinct cell_4_4 cell_4_5 cell_4_6 cell_5_4 cell_5_5 cell_5_6 cell_6_4 cell_6_5 cell_6_6) true))
(assert
 (and (distinct cell_4_7 cell_4_8 cell_4_9 cell_5_7 cell_5_8 cell_5_9 cell_6_7 cell_6_8 cell_6_9) true))
(assert
 (and (distinct cell_7_1 cell_7_2 cell_7_3 cell_8_1 cell_8_2 cell_8_3 cell_9_1 cell_9_2 cell_9_3) true))
(assert
 (and (distinct cell_7_4 cell_7_5 cell_7_6 cell_8_4 cell_8_5 cell_8_6 cell_9_4 cell_9_5 cell_9_6) true))
(assert
 (and (distinct cell_7_7 cell_7_8 cell_7_9 cell_8_7 cell_8_8 cell_8_9 cell_9_7 cell_9_8 cell_9_9) true))
(assert
 (let (($x700 (and (distinct cell_5_9 cell_6_8 cell_7_7 cell_8_6) true)))
 (let (($x299 (and (distinct cell_2_9 cell_3_8 cell_4_7 cell_5_6 cell_6_5 cell_7_4 cell_8_3 cell_9_2) true)))
 (let (($x397 (and (distinct cell_1_8 cell_2_7 cell_3_6 cell_4_5 cell_5_4 cell_6_3 cell_7_2 cell_8_1) true)))
 (let (($x381 (and (distinct cell_1_5 cell_2_4 cell_3_3 cell_4_2) true)))
 (let (($x645 (and (distinct cell_5_1 cell_6_2 cell_7_3 cell_8_4) true)))
 (let (($x2930 (and (distinct cell_2_1 cell_3_2 cell_4_3 cell_5_4 cell_6_5 cell_7_6 cell_8_7 cell_9_8) true)))
 (let (($x2089 (and (distinct cell_1_2 cell_2_3 cell_3_4 cell_4_5 cell_5_6 cell_6_7 cell_7_8 cell_8_9) true)))
 (let (($x1902 (and (distinct cell_1_5 cell_2_6 cell_3_7 cell_4_8) true)))
 (and $x1902 $x2089 $x2930 $x645 $x381 $x397 $x299 $x700))))))))))
(assert
 (= cell_7_2 2))
(check-sat)
